NAME: Random_80_2
ELLAPSED_TIME_(ms): 400
TOUR_SIZE: 1707
TOUR_SECTION
0
17
10
13
32
47
68
65
14
54
21
9
33
24
37
40
2
3
71
27
46
8
64
45
43
39
63
62
44
77
29
79
28
36
5
59
53
56
75
1
60
35
18
6
11
72
58
38
4
7
67
25
30
55
26
52
22
34
12
42
61
73
16
76
74
66
78
48
31
49
50
70
15
57
20
69
51
41
23
19
0
EOF
